&BANDS

outdir = './tmp',
prefix='Si',
filband='bands.dat',
/


