 &BANDS
    prefix  = 'Graphene_1x1_PBE'
    outdir  = './tmp/'
    filband = 'graphene.bands.dat'
    lsym = .true.,
 /
