 &control
    calculation = 'bands',
    prefix = 'al',
    pseudo_dir = '../../pseudo',
    outdir = './tmp'
 /
 &system
    ibrav =  2, 
    celldm(1) = 7.461, 
    nat =  1, 
    ntyp = 1,
    nbnd = 10
    ecutwfc = 16,
    occupations='smearing'
    smearing='marzari-vanderbilt'
    degauss=0.05
 /
 &electrons
    mixing_beta = 0.7
 /
ATOMIC_SPECIES
Al  26.98 Al.pz-vbc.UPF
ATOMIC_POSITIONS (alat)
 Al 0.0 0.0 0.0
K_POINTS {crystal_b}
5
  0.000 0.500 00.000 20  !L
  0.000 0.000 00.000 30  !G
 -0.500 0.000 -0.500 10  !X
 -0.375 0.250 -0.375 30  !U
  0.000 0.000 00.000 20  !G

