&DOS

outdir = './tmp',
prefix='Si',
fildos='dos.dat',
/


