&PROJWFC
outdir = './tmp',
prefix='Si',
filpdos='pdos.dat',
/


