 &DOS
    prefix = 'Graphene_1x1_PBE',
    outdir = './tmp'
    fildos = 'graphene.dos'
 /
