&control
    calculation = 'scf',
    prefix = 'al',
    pseudo_dir = '../../../../pseudo',
    outdir = './tmp'
/
&system
    ibrav = 2, 
    celldm(1) = 7.461, 
    nat = 1, 
    ntyp = 1,
    nbnd = 10
    ecutwfc = 16,
    occupations='smearing'
    smearing='gaussian'
    degauss=0.11
/
&electrons
    mixing_beta = 0.7
/
ATOMIC_SPECIES
Al 26.98 Al.pz-vbc.UPF
ATOMIC_POSITIONS (alat)
Al 0.0 0.0 0.0
K_POINTS (automatic)
16 16 16 1 1 1

