&DOS

outdir = './tmp',
prefix='al',
fildos='dos.dat',
/

