&PROJWFC

outdir = './tmp',
prefix='al',
filpdos='pdos.dat',
/

