&BANDS

outdir = './tmp',
prefix='al',
filband='bands.dat',
/


